min: c;

c = 2.88243442279745 * u2_t7_h3 + 3.24736215992841 * u2_t7_h4 + 3.39361523937722 * u2_t2_h5 + 3.39361523937722 * u2_t3_h5 + 3.39361523937722 * u2_t7_h5 + 3.72086091258205 * u2_t2_h6 + 3.72086091258205 * u2_t3_h6 + 3.72086091258205 * u2_t4_h6 + 3.72086091258205 * u2_t7_h6 + 3.72086091258205 * u2_t10_h6 + 3.60027343461571 * u2_t2_h7 + 3.60027343461571 * u2_t3_h7 + 3.60027343461571 * u2_t4_h7 + 3.60027343461571 * u2_t7_h7 + 3.60027343461571 * u2_t10_h7 + 5.53635011224041 * u2_t2_h8 + 5.53635011224041 * u2_t3_h8 + 5.53635011224041 * u2_t4_h8 + 5.53635011224041 * u2_t7_h8 + 5.53635011224041 * u2_t10_h8 + 4.65351191369647 * u2_t2_h9 + 4.65351191369647 * u2_t3_h9 + 4.65351191369647 * u2_t4_h9 + 4.65351191369647 * u2_t7_h9 + 4.65351191369647 * u2_t10_h9 + 5.82005477994048 * u2_t2_h10 + 5.82005477994048 * u2_t3_h10 + 5.82005477994048 * u2_t4_h10 + 5.82005477994048 * u2_t7_h10 + 5.82005477994048 * u2_t10_h10 + 3.86920329817874 * u2_t1_h11 + 3.86920329817874 * u2_t2_h11 + 3.86920329817874 * u2_t3_h11 + 3.86920329817874 * u2_t4_h11 + 3.86920329817874 * u2_t7_h11 + 3.86920329817874 * u2_t10_h11 + 6.32451882850277 * u2_t1_h12 + 6.32451882850277 * u2_t3_h12 + 6.32451882850277 * u2_t4_h12 + 6.32451882850277 * u2_t7_h12 + 4.7420371412062 * u2_t1_h13 + 4.7420371412062 * u2_t3_h13 + 4.7420371412062 * u2_t4_h13 + 4.7420371412062 * u2_t7_h13 + 4.7420371412062 * u2_t9_h13 + 5.40238194490625 * u2_t1_h14 + 5.40238194490625 * u2_t3_h14 + 5.40238194490625 * u2_t4_h14 + 5.40238194490625 * u2_t7_h14 + 5.40238194490625 * u2_t9_h14 + 5.78492925309961 * u2_t1_h15 + 5.78492925309961 * u2_t3_h15 + 5.78492925309961 * u2_t4_h15 + 5.78492925309961 * u2_t7_h15 + 5.78492925309961 * u2_t9_h15 + 6.34096845204416 * u2_t1_h16 + 6.34096845204416 * u2_t3_h16 + 6.34096845204416 * u2_t4_h16 + 6.34096845204416 * u2_t7_h16 + 6.34096845204416 * u2_t9_h16 + 6.64960313543513 * u2_t1_h17 + 6.64960313543513 * u2_t3_h17 + 6.64960313543513 * u2_t4_h17 + 6.64960313543513 * u2_t7_h17 + 6.64960313543513 * u2_t9_h17 + 6.72080835191463 * u2_t1_h18 + 6.72080835191463 * u2_t3_h18 + 6.72080835191463 * u2_t4_h18 + 6.72080835191463 * u2_t6_h18 + 6.72080835191463 * u2_t7_h18 + 5.39202053311001 * u2_t1_h19 + 5.39202053311001 * u2_t3_h19 + 5.39202053311001 * u2_t4_h19 + 5.39202053311001 * u2_t5_h19 + 5.39202053311001 * u2_t6_h19 + 5.39202053311001 * u2_t7_h19 + 5.13029647968886 * u2_t1_h20 + 5.13029647968886 * u2_t3_h20 + 5.13029647968886 * u2_t4_h20 + 5.13029647968886 * u2_t6_h20 + 5.13029647968886 * u2_t7_h20 + 5.53280473024764 * u2_t1_h21 + 5.53280473024764 * u2_t3_h21 + 5.53280473024764 * u2_t6_h21 + 5.53280473024764 * u2_t7_h21 + 5.53280473024764 * u2_t8_h21 + 6.02896168236726 * u2_t1_h22 + 6.02896168236726 * u2_t3_h22 + 6.02896168236726 * u2_t7_h22 + 6.02896168236726 * u2_t8_h22 + 5.49641827749868 * u2_t3_h23 + 5.49641827749868 * u2_t7_h23 + 5.49641827749868 * u2_t8_h23;
0 <= u2_t1_h11 <= 1;
0 <= u2_t1_h12 <= 1;
0 <= u2_t1_h13 <= 1;
0 <= u2_t1_h14 <= 1;
0 <= u2_t1_h15 <= 1;
0 <= u2_t1_h16 <= 1;
0 <= u2_t1_h17 <= 1;
0 <= u2_t1_h18 <= 1;
0 <= u2_t1_h19 <= 1;
0 <= u2_t1_h20 <= 1;
0 <= u2_t1_h21 <= 1;
0 <= u2_t1_h22 <= 1;
u2_t1_h11 + u2_t1_h12 + u2_t1_h13 + u2_t1_h14 + u2_t1_h15 + u2_t1_h16 + u2_t1_h17 + u2_t1_h18 + u2_t1_h19 + u2_t1_h20 + u2_t1_h21 + u2_t1_h22 = 2;
0 <= u2_t2_h5 <= 1;
0 <= u2_t2_h6 <= 1;
0 <= u2_t2_h7 <= 1;
0 <= u2_t2_h8 <= 1;
0 <= u2_t2_h9 <= 1;
0 <= u2_t2_h10 <= 1;
0 <= u2_t2_h11 <= 1;
u2_t2_h5 + u2_t2_h6 + u2_t2_h7 + u2_t2_h8 + u2_t2_h9 + u2_t2_h10 + u2_t2_h11 = 2;
0 <= u2_t3_h5 <= 1;
0 <= u2_t3_h6 <= 1;
0 <= u2_t3_h7 <= 1;
0 <= u2_t3_h8 <= 1;
0 <= u2_t3_h9 <= 1;
0 <= u2_t3_h10 <= 1;
0 <= u2_t3_h11 <= 1;
0 <= u2_t3_h12 <= 1;
0 <= u2_t3_h13 <= 1;
0 <= u2_t3_h14 <= 1;
0 <= u2_t3_h15 <= 1;
0 <= u2_t3_h16 <= 1;
0 <= u2_t3_h17 <= 1;
0 <= u2_t3_h18 <= 1;
0 <= u2_t3_h19 <= 1;
0 <= u2_t3_h20 <= 1;
0 <= u2_t3_h21 <= 1;
0 <= u2_t3_h22 <= 1;
0 <= u2_t3_h23 <= 1;
u2_t3_h5 + u2_t3_h6 + u2_t3_h7 + u2_t3_h8 + u2_t3_h9 + u2_t3_h10 + u2_t3_h11 + u2_t3_h12 + u2_t3_h13 + u2_t3_h14 + u2_t3_h15 + u2_t3_h16 + u2_t3_h17 + u2_t3_h18 + u2_t3_h19 + u2_t3_h20 + u2_t3_h21 + u2_t3_h22 + u2_t3_h23 = 1;
0 <= u2_t4_h6 <= 1;
0 <= u2_t4_h7 <= 1;
0 <= u2_t4_h8 <= 1;
0 <= u2_t4_h9 <= 1;
0 <= u2_t4_h10 <= 1;
0 <= u2_t4_h11 <= 1;
0 <= u2_t4_h12 <= 1;
0 <= u2_t4_h13 <= 1;
0 <= u2_t4_h14 <= 1;
0 <= u2_t4_h15 <= 1;
0 <= u2_t4_h16 <= 1;
0 <= u2_t4_h17 <= 1;
0 <= u2_t4_h18 <= 1;
0 <= u2_t4_h19 <= 1;
0 <= u2_t4_h20 <= 1;
u2_t4_h6 + u2_t4_h7 + u2_t4_h8 + u2_t4_h9 + u2_t4_h10 + u2_t4_h11 + u2_t4_h12 + u2_t4_h13 + u2_t4_h14 + u2_t4_h15 + u2_t4_h16 + u2_t4_h17 + u2_t4_h18 + u2_t4_h19 + u2_t4_h20 = 3;
0 <= u2_t5_h19 <= 1;
u2_t5_h19 = 1;
0 <= u2_t6_h18 <= 1;
0 <= u2_t6_h19 <= 1;
0 <= u2_t6_h20 <= 1;
0 <= u2_t6_h21 <= 1;
u2_t6_h18 + u2_t6_h19 + u2_t6_h20 + u2_t6_h21 = 2;
0 <= u2_t7_h3 <= 1;
0 <= u2_t7_h4 <= 1;
0 <= u2_t7_h5 <= 1;
0 <= u2_t7_h6 <= 1;
0 <= u2_t7_h7 <= 1;
0 <= u2_t7_h8 <= 1;
0 <= u2_t7_h9 <= 1;
0 <= u2_t7_h10 <= 1;
0 <= u2_t7_h11 <= 1;
0 <= u2_t7_h12 <= 1;
0 <= u2_t7_h13 <= 1;
0 <= u2_t7_h14 <= 1;
0 <= u2_t7_h15 <= 1;
0 <= u2_t7_h16 <= 1;
0 <= u2_t7_h17 <= 1;
0 <= u2_t7_h18 <= 1;
0 <= u2_t7_h19 <= 1;
0 <= u2_t7_h20 <= 1;
0 <= u2_t7_h21 <= 1;
0 <= u2_t7_h22 <= 1;
0 <= u2_t7_h23 <= 1;
u2_t7_h3 + u2_t7_h4 + u2_t7_h5 + u2_t7_h6 + u2_t7_h7 + u2_t7_h8 + u2_t7_h9 + u2_t7_h10 + u2_t7_h11 + u2_t7_h12 + u2_t7_h13 + u2_t7_h14 + u2_t7_h15 + u2_t7_h16 + u2_t7_h17 + u2_t7_h18 + u2_t7_h19 + u2_t7_h20 + u2_t7_h21 + u2_t7_h22 + u2_t7_h23 = 3;
0 <= u2_t8_h21 <= 1;
0 <= u2_t8_h22 <= 1;
0 <= u2_t8_h23 <= 1;
u2_t8_h21 + u2_t8_h22 + u2_t8_h23 = 2;
0 <= u2_t9_h13 <= 1;
0 <= u2_t9_h14 <= 1;
0 <= u2_t9_h15 <= 1;
0 <= u2_t9_h16 <= 1;
0 <= u2_t9_h17 <= 1;
u2_t9_h13 + u2_t9_h14 + u2_t9_h15 + u2_t9_h16 + u2_t9_h17 = 1;
0 <= u2_t10_h6 <= 1;
0 <= u2_t10_h7 <= 1;
0 <= u2_t10_h8 <= 1;
0 <= u2_t10_h9 <= 1;
0 <= u2_t10_h10 <= 1;
0 <= u2_t10_h11 <= 1;
u2_t10_h6 + u2_t10_h7 + u2_t10_h8 + u2_t10_h9 + u2_t10_h10 + u2_t10_h11 = 2;
